# Solution for model r3_t27_m7_9 Batch Number: 4
# Finished Task: 24 / 27
# Makespan: 1090.0, Total Distance: 655.0, Total Time: 10.0472
# R O S F Batch
0 0 3 0.0 0.0 -1
1 1 9 0.0 0.0 -1
2 2 20 0.0 0.0 -1
3 0 6 349.0 382.0 0
4 0 5 804.0 837.0 2
5 0 26 864.0 901.0 2
6 0 16 429.0 456.0 0
7 1 29 747.0 769.0 2
8 -1 -1 -1.0 -1.0 2
9 1 14 411.0 450.0 0
10 2 25 521.0 546.0 0
11 -1 -1 -1.0 -1.0 3
12 1 22 592.0 624.0 0
13 2 19 768.0 804.0 2
14 1 12 546.0 580.0 0
15 2 -1 877.0 913.0 2
16 0 17 489.0 521.0 0
17 0 23 590.0 624.0 0
18 1 7 685.0 705.0 2
19 2 15 834.0 857.0 2
20 2 10 458.0 489.0 0
21 0 24 995.0 1024.0 3
22 1 18 624.0 661.0 0
23 0 4 662.0 686.0 2
24 0 -1 1055.0 1090.0 3
25 2 27 629.0 661.0 0
26 0 21 934.0 956.0 3
27 2 13 697.0 732.0 1
28 -1 -1 -1.0 -1.0 3
29 1 -1 913.0 937.0 2
